self-compositions/words_1/words_374_SAT.qaiger
aag 109 24 0 1 85
36
40
42
30
38
18
12
32
8
6
10
24
44
16
46
2
20
22
4
48
34
28
14
26
219
50 21 19
52 50 23
54 52 25
56 53 24
58 57 55
60 58 41
62 51 22
64 63 53
66 64 39
68 20 18
70 69 51
72 70 37
74 71 36
76 75 73
78 76 18
80 78 35
82 81 73
84 65 38
86 85 67
88 86 83
90 89 67
92 59 40
94 93 61
96 94 91
98 97 61
100 54 27
102 55 26
104 103 101
106 104 43
108 105 42
110 109 107
112 110 99
114 111 98
116 115 113
118 77 19
120 118 34
122 121 81
124 123 117
126 113 107
128 100 29
130 101 28
132 131 129
134 132 45
136 133 44
138 137 135
140 138 127
142 139 126
144 143 141
146 87 82
148 147 89
150 95 90
152 151 97
154 153 149
156 154 145
158 156 124
160 158 2
162 141 135
164 128 31
166 129 30
168 167 165
170 168 47
172 169 46
174 173 171
176 174 163
178 175 162
180 179 177
182 159 3
184 183 181
186 185 161
188 177 171
190 48 33
192 49 32
194 193 191
196 195 4
198 194 5
200 199 197
202 200 164
204 201 165
206 205 203
208 206 189
210 207 188
212 211 209
214 212 186
216 213 187
218 217 215
i0 2 z[1]
i1 2 z[3]
i2 2 z[4]
i3 2 y[6]
i4 2 z[2]
i5 2 y[0]
i6 1 x[5]
i7 2 y[7]
i8 1 x[3]
i9 1 x[2]
i10 1 x[4]
i11 2 y[3]
i12 2 z[5]
i13 1 x[7]
i14 2 z[6]
i15 1 x[0]
i16 2 y[1]
i17 2 y[2]
i18 1 x[1]
i19 2 z[7]
i20 2 z[0]
i21 2 y[5]
i22 1 x[6]
i23 2 y[4]
o0 bv[0]
c
simplified
  >=
    << 6
      1 x
    subtract
      unary minus
        2 y
      add
        1
        2 z
