self-compositions/words_1/words_374_SAT.qaiger.qdimacs
p cnf 109 256
a 1 2 3 4 5 6 7 8 0
e 9 10 11 12 13 14 15 16 17 18 19 20 21 22 23 24 25 26 27 28 29 30 31 32 33 34 35 36 37 38 39 40 41 42 43 44 45 46 47 48 49 50 51 52 53 54 55 56 57 58 59 60 61 62 63 64 65 66 67 68 69 70 71 72 73 74 75 76 77 78 79 80 81 82 83 84 85 86 87 88 89 90 91 92 93 94 95 96 97 98 99 100 101 102 103 104 105 106 107 108 109 0
10 9 25 0
-10 -25 0
-9 -25 0
-25 11 26 0
25 -26 0
-11 -26 0
-26 12 27 0
26 -27 0
-12 -27 0
26 -12 28 0
-26 -28 0
12 -28 0
28 27 29 0
-28 -29 0
-27 -29 0
-29 20 30 0
29 -30 0
-20 -30 0
25 -11 31 0
-25 -31 0
11 -31 0
31 26 32 0
-31 -32 0
-26 -32 0
-32 19 33 0
32 -33 0
-19 -33 0
-10 -9 34 0
10 -34 0
9 -34 0
34 25 35 0
-34 -35 0
-25 -35 0
-35 18 36 0
35 -36 0
-18 -36 0
35 -18 37 0
-35 -37 0
18 -37 0
37 36 38 0
-37 -38 0
-36 -38 0
-38 -9 39 0
38 -39 0
9 -39 0
-39 17 40 0
39 -40 0
-17 -40 0
40 36 41 0
-40 -41 0
-36 -41 0
32 -19 42 0
-32 -42 0
19 -42 0
42 33 43 0
-42 -43 0
-33 -43 0
-43 41 44 0
43 -44 0
-41 -44 0
44 33 45 0
-44 -45 0
-33 -45 0
29 -20 46 0
-29 -46 0
20 -46 0
46 30 47 0
-46 -47 0
-30 -47 0
-47 45 48 0
47 -48 0
-45 -48 0
48 30 49 0
-48 -49 0
-30 -49 0
-27 13 50 0
27 -50 0
-13 -50 0
27 -13 51 0
-27 -51 0
13 -51 0
51 50 52 0
-51 -52 0
-50 -52 0
-52 21 53 0
52 -53 0
-21 -53 0
52 -21 54 0
-52 -54 0
21 -54 0
54 53 55 0
-54 -55 0
-53 -55 0
-55 49 56 0
55 -56 0
-49 -56 0
55 -49 57 0
-55 -57 0
49 -57 0
57 56 58 0
-57 -58 0
-56 -58 0
38 9 59 0
-38 -59 0
-9 -59 0
-59 -17 60 0
59 -60 0
17 -60 0
60 40 61 0
-60 -61 0
-40 -61 0
61 58 62 0
-61 -62 0
-58 -62 0
56 53 63 0
-56 -63 0
-53 -63 0
-50 14 64 0
50 -64 0
-14 -64 0
50 -14 65 0
-50 -65 0
14 -65 0
65 64 66 0
-65 -66 0
-64 -66 0
-66 22 67 0
66 -67 0
-22 -67 0
66 -22 68 0
-66 -68 0
22 -68 0
68 67 69 0
-68 -69 0
-67 -69 0
-69 63 70 0
69 -70 0
-63 -70 0
69 -63 71 0
-69 -71 0
63 -71 0
71 70 72 0
-71 -72 0
-70 -72 0
43 -41 73 0
-43 -73 0
41 -73 0
73 44 74 0
-73 -74 0
-44 -74 0
47 -45 75 0
-47 -75 0
45 -75 0
75 48 76 0
-75 -76 0
-48 -76 0
76 74 77 0
-76 -77 0
-74 -77 0
-77 72 78 0
77 -78 0
-72 -78 0
-78 -62 79 0
78 -79 0
62 -79 0
-79 -1 80 0
79 -80 0
1 -80 0
70 67 81 0
-70 -81 0
-67 -81 0
-64 15 82 0
64 -82 0
-15 -82 0
64 -15 83 0
-64 -83 0
15 -83 0
83 82 84 0
-83 -84 0
-82 -84 0
-84 23 85 0
84 -85 0
-23 -85 0
84 -23 86 0
-84 -86 0
23 -86 0
86 85 87 0
-86 -87 0
-85 -87 0
-87 81 88 0
87 -88 0
-81 -88 0
87 -81 89 0
-87 -89 0
81 -89 0
89 88 90 0
-89 -90 0
-88 -90 0
79 1 91 0
-79 -91 0
-1 -91 0
91 90 92 0
-91 -92 0
-90 -92 0
92 80 93 0
-92 -93 0
-80 -93 0
88 85 94 0
-88 -94 0
-85 -94 0
-24 16 95 0
24 -95 0
-16 -95 0
24 -16 96 0
-24 -96 0
16 -96 0
96 95 97 0
-96 -97 0
-95 -97 0
97 -2 98 0
-97 -98 0
2 -98 0
-97 2 99 0
97 -99 0
-2 -99 0
99 98 100 0
-99 -100 0
-98 -100 0
-100 -82 101 0
100 -101 0
82 -101 0
100 82 102 0
-100 -102 0
-82 -102 0
102 101 103 0
-102 -103 0
-101 -103 0
-103 94 104 0
103 -104 0
-94 -104 0
103 -94 105 0
-103 -105 0
94 -105 0
105 104 106 0
-105 -106 0
-104 -106 0
-106 -93 107 0
106 -107 0
93 -107 0
106 93 108 0
-106 -108 0
-93 -108 0
108 107 109 0
-108 -109 0
-107 -109 0
-109 0
